Optimal - objective value 855.00000000
      6 x_0_6                    1                       0
     11 x_1_4                    1                       0
     14 x_2_0                    1                       0
     22 x_3_1                    1                       0
     33 x_4_5                    1                       0
     38 x_5_3                    1                       0
     44 x_6_2                    1                       0
    269 y_0_6_1_4                1                       4
    271 y_0_6_2_0                1                      18
    278 y_0_6_3_1                1                      24
    288 y_0_6_4_5                1                      48
    292 y_0_6_5_3                1                      33
    297 y_0_6_6_2                1                      96
    421 y_1_4_2_0                1                      40
    428 y_1_4_3_1                1                      51
    437 y_1_4_4_5                1                      39
    442 y_1_4_5_3                1                      28
    447 y_1_4_6_2                1                      39
    511 y_2_0_3_1                1                      44
    521 y_2_0_4_5                1                      33
    525 y_2_0_5_3                1                      56
    530 y_2_0_6_2                1                      41
    701 y_3_1_4_5                1                      48
    705 y_3_1_5_3                1                      35
    710 y_3_1_6_2                1                      58
    868 y_4_5_5_3                1                      24
    873 y_4_5_6_2                1                      60
    909 y_5_3_6_2                1                      36
